
Log started (V11.0.0) Wed Apr 16 12:45:21 2008

Tried aggregator 1 time.
Reduced MIP has 110 rows, 1001 columns, and 2010 nonzeros.
Presolve time =    0.02 sec.
Clique table members: 100.
MIP emphasis: balance optimality and feasibility.
MIP search method: dynamic search.
Parallel mode: none, using 1 thread.
Root relaxation solution time =    0.01 sec.

        Nodes                                         Cuts/
   Node  Left     Objective  IInf  Best Integer     Best Node    ItCnt     Gap

*     0+    0                        14916.0000     1085.3927      207   92.72%
*     0+    0                         1133.0000     1085.3927      207    4.20%
      0     0     1086.2657    23     1133.0000      Fract: 7      216    4.12%
*     0+    0                         1128.0000     1086.2657      216    3.70%
      0     0     1087.6711    30     1128.0000    MIRcuts: 8      250    3.58%
      0     0     1087.9421    41     1128.0000       Cuts: 8      264    3.55%
      0     0     1088.0694    45     1128.0000       Cuts: 6      285    3.54%
*     0+    0                         1105.0000     1088.0694      285    1.53%
      0     0     1088.3412    47     1105.0000       Cuts: 7      311    1.51%
      0     0     1088.5021    50     1105.0000    MIRcuts: 5      331    1.49%
      0     0     1088.7665    53     1105.0000       Cuts: 5      358    1.47%
      0     0     1089.0972    47     1105.0000    MIRcuts: 3      383    1.44%
      0     0     1089.1800    50     1105.0000       Cuts: 5      393    1.43%
      0     0     1089.3409    53     1105.0000     Covers: 1      406    1.42%
      0     0     1089.3641    55     1105.0000    MIRcuts: 1      412    1.42%
*     0+    0                         1095.0000     1089.3641      412    0.51%

Repeating presolve.
Tried aggregator 1 time.
MIP Presolve eliminated 0 rows and 355 columns.
Aggregator did 1 substitutions.
Reduced MIP has 109 rows, 645 columns, and 1298 nonzeros.
Tried aggregator 1 time.
Represolve time =    0.03 sec.
Clique table members: 99.
MIP emphasis: balance optimality and feasibility.
MIP search method: dynamic search.
Parallel mode: none, using 1 thread.
Root relaxation solution time =    0.01 sec.

        Nodes                                         Cuts/
   Node  Left     Objective  IInf  Best Integer     Best Node    ItCnt     Gap

      0     0     1090.0000    43     1095.0000     1090.0000      242    0.46%
      0     2     1090.0000    43     1095.0000     1090.0000      242    0.46%
    100    72     1091.0000    38     1095.0000     1090.0000     3071    0.46%
    200   150     1093.0000    33     1095.0000     1090.0000     5859    0.46%
    300   210    infeasible           1095.0000     1090.0000    10363    0.46%
    400   280     1094.0000    40     1095.0000     1090.0000    15354    0.46%
    500   341     1092.0000    27     1095.0000     1092.0000    24556    0.27%
    600   347     1092.0000    38     1095.0000     1092.0000    29405    0.27%
    700   342     1093.0000    34     1095.0000     1092.0000    37337    0.27%
*   734+  239                         1094.0000     1092.0000    39826    0.18%
    800   241     1093.0000    65     1094.0000     1092.0000    45014    0.18%
    900   225     1093.0000    71     1094.0000     1092.0000    54796    0.18%
   1000   282     1093.0000    55     1094.0000     1092.0000    66590    0.18%
Elapsed time =  10.78 sec. (tree size =  0.11 MB, solutions = 6)
   1100   344     1092.0000    55     1094.0000     1092.0000    75969    0.18%
   1200   410     1093.0000    77     1094.0000     1092.0000    86276    0.18%
   1300   481     1093.0000    76     1094.0000     1092.0000    98868    0.18%
   1400   545     1092.0000    83     1094.0000     1092.0000   109408    0.18%
   1500   617     1093.0000    67     1094.0000     1092.0000   121750    0.18%
   1600   695     1093.0000    66     1094.0000     1092.0000   130452    0.18%
   1700   757     1093.0000    71     1094.0000     1092.0000   140276    0.18%
   1800   835     1093.0000    69     1094.0000     1092.0000   149770    0.18%
   1900   896     1093.0000    67     1094.0000     1092.0000   159103    0.18%
   2000   954     1092.8982    98     1094.0000     1092.0000   174792    0.18%
Elapsed time =  26.44 sec. (tree size =  0.40 MB, solutions = 6)
   2100  1024     1093.0000    80     1094.0000     1092.0000   187151    0.18%
   2200  1091     1093.0000    56     1094.0000     1092.0000   198467    0.18%
   2300  1151     1093.0000    35     1094.0000     1092.0000   212486    0.18%
   2400  1210     1093.0000    58     1094.0000     1092.0000   225474    0.18%
   2500  1276     1093.0000    79     1094.0000     1092.0000   239838    0.18%
   2600  1320     1093.0000    70     1094.0000     1092.0000   255224    0.18%
   2700  1387     1093.0000    73     1094.0000     1092.0000   271094    0.18%
   2800  1408     1093.0000    44     1094.0000     1093.0000   293799    0.09%
   2900  1393    infeasible           1094.0000     1093.0000   319724    0.09%
   3000  1391     1093.0000    76     1094.0000     1093.0000   342433    0.09%
Elapsed time =  56.80 sec. (tree size =  0.60 MB, solutions = 6)
   3100  1375     1093.0000    54     1094.0000     1093.0000   367542    0.09%
   3200  1366     1093.0000    86     1094.0000     1093.0000   390830    0.09%
   3300  1372    infeasible           1094.0000     1093.0000   412134    0.09%
   3400  1362    infeasible           1094.0000     1093.0000   434450    0.09%
   3500  1332     1093.0000    65     1094.0000     1093.0000   457695    0.09%
   3600  1350    infeasible           1094.0000     1093.0000   476408    0.09%
   3700  1344    infeasible           1094.0000     1093.0000   499511    0.09%
   3800  1334     1093.0000    54     1094.0000     1093.0000   521474    0.09%
   3900  1327     1093.0000    85     1094.0000     1093.0000   542634    0.09%
   4000  1345     1093.0000    82     1094.0000     1093.0000   563827    0.09%
Elapsed time =  94.13 sec. (tree size =  0.59 MB, solutions = 6)
   4100  1337    infeasible           1094.0000     1093.0000   588078    0.09%
   4200  1329     1093.0000    56     1094.0000     1093.0000   608165    0.09%
   4300  1305    infeasible           1094.0000     1093.0000   632837    0.09%
   4400  1309    infeasible           1094.0000     1093.0000   653516    0.09%
   4500  1273    infeasible           1094.0000     1093.0000   679075    0.09%
   4600  1267     1093.0000    93     1094.0000     1093.0000   705405    0.09%
   4700  1264     1093.0000    66     1094.0000     1093.0000   726037    0.09%
   4800  1248     1093.0000    73     1094.0000     1093.0000   750080    0.09%
   4900  1232    infeasible           1094.0000     1093.0000   773143    0.09%
   5000  1226    infeasible           1094.0000     1093.0000   795783    0.09%
Elapsed time = 131.13 sec. (tree size =  0.54 MB, solutions = 6)
   5100  1224    infeasible           1094.0000     1093.0000   818794    0.09%
   5200  1204    infeasible           1094.0000     1093.0000   843004    0.09%
   5300  1219     1093.0000    80     1094.0000     1093.0000   862945    0.09%
   5400  1227    infeasible           1094.0000     1093.0000   883512    0.09%
   5500  1239     1093.0000    75     1094.0000     1093.0000   905127    0.09%
   5600  1235     1093.0000    76     1094.0000     1093.0000   926380    0.09%
   5700  1241    infeasible           1094.0000     1093.0000   944802    0.09%
   5800  1237    infeasible           1094.0000     1093.0000   964609    0.09%
   5900  1217    infeasible           1094.0000     1093.0000   989206    0.09%
   6000  1239     1093.0000    34     1094.0000     1093.0000  1007880    0.09%
Elapsed time = 165.45 sec. (tree size =  0.55 MB, solutions = 6)
   6100  1221     1093.0000    51     1094.0000     1093.0000  1028204    0.09%
   6200  1187     1093.0000    88     1094.0000     1093.0000  1053875    0.09%
   6300  1171    infeasible           1094.0000     1093.0000  1073331    0.09%
   6400  1203     1093.0000    61     1094.0000     1093.0000  1087562    0.09%
   6500  1217     1093.0000    63     1094.0000     1093.0000  1105809    0.09%
   6600  1205    infeasible           1094.0000     1093.0000  1124736    0.09%
   6700  1175    infeasible           1094.0000     1093.0000  1146337    0.09%
   6800  1141     1093.0000    85     1094.0000     1093.0000  1169795    0.09%
   6900  1145     1093.0000    82     1094.0000     1093.0000  1189875    0.09%
   7000  1135    infeasible           1094.0000     1093.0000  1211170    0.09%
Elapsed time = 197.05 sec. (tree size =  0.51 MB, solutions = 6)
   7100  1107     1093.0000    77     1094.0000     1093.0000  1235367    0.09%
   7200  1097     1093.0000    78     1094.0000     1093.0000  1256186    0.09%
   7300  1095    infeasible           1094.0000     1093.0000  1281569    0.09%
   7400  1077    infeasible           1094.0000     1093.0000  1307413    0.09%
   7500  1047    infeasible           1094.0000     1093.0000  1331254    0.09%
   7600  1053    infeasible           1094.0000     1093.0000  1353794    0.09%
   7700  1005     1093.0000    62     1094.0000     1093.0000  1379686    0.09%
   7800   985    infeasible           1094.0000     1093.0000  1400775    0.09%
   7900   993    infeasible           1094.0000     1093.0000  1418662    0.09%
   8000   991     1093.0000    40     1094.0000     1093.0000  1438625    0.09%
Elapsed time = 233.08 sec. (tree size =  0.45 MB, solutions = 6)
   8100   953    infeasible           1094.0000     1093.0000  1463158    0.09%
   8200   909    infeasible           1094.0000     1093.0000  1488861    0.09%
   8300   907    infeasible           1094.0000     1093.0000  1508604    0.09%
   8400   891    infeasible           1094.0000     1093.0000  1529862    0.09%
   8500   875    infeasible           1094.0000     1093.0000  1550423    0.09%
   8600   867    infeasible           1094.0000     1093.0000  1574925    0.09%
   8700   843    infeasible           1094.0000     1093.0000  1597392    0.09%
   8800   829     1093.0000    67     1094.0000     1093.0000  1617841    0.09%
   8900   787    infeasible           1094.0000     1093.0000  1640804    0.09%
   9000   797    infeasible           1094.0000     1093.0000  1659800    0.09%
Elapsed time = 269.91 sec. (tree size =  0.37 MB, solutions = 6)
   9100   749     1093.0000    89     1094.0000     1093.0000  1686362    0.09%
   9200   733     1093.0000    95     1094.0000     1093.0000  1709228    0.09%
   9300   723     1093.0000    78     1094.0000     1093.0000  1730855    0.09%
   9400   679    infeasible           1094.0000     1093.0000  1755801    0.09%
   9500   649     1093.0000    57     1094.0000     1093.0000  1781335    0.09%
   9600   615    infeasible           1094.0000     1093.0000  1807204    0.09%
   9700   589     1093.0000    64     1094.0000     1093.0000  1828845    0.09%
   9800   565    infeasible           1094.0000     1093.0000  1851195    0.09%
   9900   543     1093.0000    76     1094.0000     1093.0000  1872663    0.09%
  10000   523    infeasible           1094.0000     1093.0000  1894117    0.09%
Elapsed time = 306.30 sec. (tree size =  0.25 MB, solutions = 6)
  10100   539    infeasible           1094.0000     1093.0000  1918469    0.09%
  10200   499     1093.0000    77     1094.0000     1093.0000  1946998    0.09%
  10300   489    infeasible           1094.0000     1093.0000  1973243    0.09%
  10400   471    infeasible           1094.0000     1093.0000  1995835    0.09%
  10500   447     1093.0000    87     1094.0000     1093.0000  2020424    0.09%
  10600   431    infeasible           1094.0000     1093.0000  2044305    0.09%
  10700   405    infeasible           1094.0000     1093.0000  2069783    0.09%
  10800   391    infeasible           1094.0000     1093.0000  2096246    0.09%
  10900   353    infeasible           1094.0000     1093.0000  2119757    0.09%
  11000   323    infeasible           1094.0000     1093.0000  2143522    0.09%
Elapsed time = 346.64 sec. (tree size =  0.17 MB, solutions = 6)
  11100   281    infeasible           1094.0000     1093.0000  2169077    0.09%
  11200   255    infeasible           1094.0000     1093.0000  2194956    0.09%
  11300   223    infeasible           1094.0000     1093.0000  2220773    0.09%
  11400   221    infeasible           1094.0000     1093.0000  2246616    0.09%
  11500   185     1093.0000    45     1094.0000     1093.0000  2275561    0.09%
  11600   167    infeasible           1094.0000     1093.0000  2300989    0.09%
  11700   130     1093.0000    63     1094.0000     1093.0000  2327911    0.09%
  11800   108    infeasible           1094.0000     1093.0000  2352348    0.09%
  11900    70    infeasible           1094.0000     1093.0000  2378641    0.09%
  12000    72     1093.0000    67     1094.0000     1093.0000  2400775    0.09%
Elapsed time = 389.03 sec. (tree size =  0.06 MB, solutions = 6)
  12100    48    infeasible           1094.0000     1093.0000  2425726    0.09%
  12200     2     1093.0000    95     1094.0000     1093.0000  2455170    0.09%

Cover cuts applied:  519
Flow cuts applied:  1
Mixed integer rounding cuts applied:  23
Gomory fractional cuts applied:  2

Solution pool: 6 solutions saved.

MIP - Integer optimal solution:  Objective = 1.0940000000e+003
Solution time =  400.48 sec.  Iterations = 2468283  Nodes = 12261


Incumbent solution
Variable Name           Solution Value
Cmax                       1094.000000
X_1_1                         1.000000
X_2_10                        1.000000
X_3_6                         1.000000
X_4_6                         1.000000
X_5_6                         1.000000
X_6_3                         1.000000
X_7_2                         1.000000
X_8_5                         1.000000
X_9_8                         1.000000
X_10_3                        1.000000
X_11_7                        1.000000
X_12_5                        1.000000
X_13_5                        1.000000
X_14_6                        1.000000
X_15_10                       1.000000
X_16_8                        1.000000
X_17_9                        1.000000
X_18_3                        1.000000
X_19_8                        1.000000
X_20_10                       1.000000
X_21_2                        1.000000
X_22_3                        1.000000
X_23_4                        1.000000
X_24_1                        1.000000
X_25_10                       1.000000
X_26_1                        1.000000
X_27_6                        1.000000
X_28_10                       1.000000
X_29_4                        1.000000
X_30_5                        1.000000
X_31_5                        1.000000
X_32_1                        1.000000
X_33_4                        1.000000
X_34_2                        1.000000
X_35_3                        1.000000
X_36_9                        1.000000
X_37_7                        1.000000
X_38_3                        1.000000
X_39_8                        1.000000
X_40_10                       1.000000
X_41_6                        1.000000
X_42_7                        1.000000
X_43_2                        1.000000
X_44_7                        1.000000
X_45_5                        1.000000
X_46_7                        1.000000
X_47_9                        1.000000
X_48_5                        1.000000
X_49_5                        1.000000
X_50_5                        1.000000
X_51_9                        1.000000
X_52_4                        1.000000
X_53_10                       1.000000
X_54_3                        1.000000
X_55_2                        1.000000
X_56_4                        1.000000
X_57_8                        1.000000
X_58_4                        1.000000
X_59_7                        1.000000
X_60_7                        1.000000
X_61_8                        1.000000
X_62_2                        1.000000
X_63_6                        1.000000
X_64_9                        1.000000
X_65_1                        1.000000
X_66_1                        1.000000
X_67_1                        1.000000
X_68_6                        1.000000
X_69_10                       1.000000
X_70_4                        1.000000
X_71_8                        1.000000
X_72_3                        1.000000
X_73_4                        1.000000
X_74_7                        1.000000
X_75_10                       1.000000
X_76_4                        1.000000
X_77_8                        1.000000
X_78_8                        1.000000
X_79_6                        1.000000
X_80_6                        1.000000
X_81_2                        1.000000
X_82_9                        1.000000
X_83_7                        1.000000
X_84_1                        1.000000
X_85_4                        1.000000
X_86_10                       1.000000
X_87_9                        1.000000
X_88_3                        1.000000
X_89_9                        1.000000
X_90_5                        1.000000
X_91_2                        1.000000
X_92_1                        1.000000
X_93_2                        1.000000
X_94_9                        1.000000
X_95_9                        1.000000
X_96_7                        1.000000
X_97_2                        1.000000
X_98_3                        1.000000
X_99_8                        1.000000
X_100_1                       1.000000
All other variables in the range 1-1001 are 0.
